c b=5,c=289
p cnf 19 77
5 -10 0
1 2 5 -15 0
1 5 -18 0
-5 10 0
1 2 -5 15 0
1 2 -5 18 0
4 -9 0
1 4 -14 0
2 4 -17 0
-4 9 0
1 -4 14 0
1 2 -4 17 0
3 -8 0
3 -13 0
1 2 3 -16 0
-3 8 0
-3 13 0
1 2 -3 16 0
2 -7 0
2 -12 0
1 2 -19 0
1 -2 5 15 0
1 3 5 -16 0
1 -2 -5 -15 0
-2 3 -5 16 0
3 -5 18 0
3 4 -17 0
3 -4 17 0
3 -19 0
1 -3 5 16 0
1 4 5 -17 0
-2 -3 -5 -16 0
-2 -3 4 -5 17 0
4 -5 18 0
4 -19 0
1 -4 5 17 0
5 -19 0
-2 -3 -4 -5 -17 0
-2 -3 -4 -5 19 0
1 -2 -3 -4 -18 0
-2 7 0
-2 12 0
1 -6 0
1 -11 0
2 4 5 -15 0
2 5 -18 0
2 4 -5 15 0
-1 4 14 0
2 3 4 -16 0
-1 2 -4 5 15 0
2 3 5 -16 0
-1 2 -4 -5 -15 0
-1 3 -4 -5 16 0
-1 -4 -14 0
2 -3 4 16 0
2 -3 5 16 0
2 -4 5 17 0
-1 -3 -4 -5 -16 0
-1 2 -3 -5 -17 0
-1 -3 -4 -5 19 0
-1 2 -3 -4 -18 0
-2 4 5 15 0
3 4 5 -16 0
3 5 -18 0
-2 4 -5 -15 0
-1 -2 -4 5 -15 0
-1 -2 -4 -5 15 0
-1 -2 3 -4 16 0
-3 4 5 16 0
-1 -2 -3 5 -17 0
4 5 -18 0
-1 -2 -3 -4 5 18 0
-1 -3 -4 -5 -18 0
-1 -2 -3 -4 -16 0
-1 -2 -3 -4 -17 0
-1 6 0
-1 11 0
